NAME CFLP
ROWS
 N  OBJ
 E  demand_1
 E  demand_2
 E  demand_3
 E  demand_4
 E  demand_5
 E  demand_6
 E  demand_7
 E  demand_8
 E  demand_9
 E  demand_10
 E  demand_11
 E  demand_12
 E  demand_13
 E  demand_14
 E  demand_15
 E  demand_16
 E  demand_17
 E  demand_18
 E  demand_19
 E  demand_20
 E  demand_21
 E  demand_22
 E  demand_23
 E  demand_24
 E  demand_25
 E  demand_26
 E  demand_27
 E  demand_28
 E  demand_29
 E  demand_30
 E  demand_31
 E  demand_32
 E  demand_33
 E  demand_34
 E  demand_35
 E  demand_36
 L  c_disjunction_1_diajunct_1
 L  c_disjunction_1_disjunct_2
 E  R38     
 L  c_disjunction_2_diajunct_1
 L  c_disjunction_2_disjunct_2
 E  R41     
 L  c_disjunction_3_diajunct_1
 L  c_disjunction_3_disjunct_2
 E  R44     
 L  c_disjunction_4_diajunct_1
 L  c_disjunction_4_disjunct_2
 E  R47     
 L  c_disjunction_5_diajunct_1
 L  c_disjunction_5_disjunct_2
 E  R50     
 L  c_disjunction_6_diajunct_1
 L  c_disjunction_6_disjunct_2
 E  R53     
 L  c_disjunction_7_diajunct_1
 L  c_disjunction_7_disjunct_2
 E  R56     
 L  c_disjunction_8_diajunct_1
 L  c_disjunction_8_disjunct_2
 E  R59     
 L  c_disjunction_9_diajunct_1
 L  c_disjunction_9_disjunct_2
 E  R62     
 L  c_disjunction_10_diajunct_1
 L  c_disjunction_10_disjunct_2
 E  R65     
 L  c_disjunction_11_diajunct_1
 L  c_disjunction_11_disjunct_2
 E  R68     
 L  c_disjunction_12_diajunct_1
 L  c_disjunction_12_disjunct_2
 E  R71     
 L  c_disjunction_13_diajunct_1
 L  c_disjunction_13_disjunct_2
 E  R74     
 L  c_disjunction_14_diajunct_1
 L  c_disjunction_14_disjunct_2
 E  R77     
 L  c_disjunction_15_diajunct_1
 L  c_disjunction_15_disjunct_2
 E  R80     
 L  c_disjunction_16_diajunct_1
 L  c_disjunction_16_disjunct_2
 E  R83     
 L  c_disjunction_17_diajunct_1
 L  c_disjunction_17_disjunct_2
 E  R86     
 L  c_disjunction_18_diajunct_1
 L  c_disjunction_18_disjunct_2
 E  R89     
 L  c_disjunction_19_diajunct_1
 L  c_disjunction_19_disjunct_2
 E  R92     
 L  c_disjunction_20_diajunct_1
 L  c_disjunction_20_disjunct_2
 E  R95     
 L  c_disjunction_21_diajunct_1
 L  c_disjunction_21_disjunct_2
 E  R98     
 L  c_disjunction_22_diajunct_1
 L  c_disjunction_22_disjunct_2
 E  R101    
 L  c_disjunction_23_diajunct_1
 L  c_disjunction_23_disjunct_2
 E  R104    
 L  c_disjunction_24_diajunct_1
 L  c_disjunction_24_disjunct_2
 E  R107    
 L  c_disjunction_25_diajunct_1
 L  c_disjunction_25_disjunct_2
 E  R110    
 L  c_disjunction_26_diajunct_1
 L  c_disjunction_26_disjunct_2
 E  R113    
 L  c_disjunction_27_diajunct_1
 L  c_disjunction_27_disjunct_2
 E  R116    
 L  c_disjunction_28_diajunct_1
 L  c_disjunction_28_disjunct_2
 E  R119    
 L  c_disjunction_29_diajunct_1
 L  c_disjunction_29_disjunct_2
 E  R122    
 L  c_disjunction_30_diajunct_1
 L  c_disjunction_30_disjunct_2
 E  R125    
 L  c_disjunction_31_diajunct_1
 L  c_disjunction_31_disjunct_2
 E  R128    
 L  c_disjunction_32_diajunct_1
 L  c_disjunction_32_disjunct_2
 E  R131    
 L  c_disjunction_33_diajunct_1
 L  c_disjunction_33_disjunct_2
 E  R134    
 L  c_disjunction_34_diajunct_1
 L  c_disjunction_34_disjunct_2
 E  R137    
 L  c_disjunction_35_diajunct_1
 L  c_disjunction_35_disjunct_2
 E  R140    
 L  c_disjunction_36_diajunct_1
 L  c_disjunction_36_disjunct_2
 E  R143    
COLUMNS
    MARKER    'MARKER'                 'INTORG'
    ind_disjunction_1_disjunct_1  OBJ       1186
    ind_disjunction_1_disjunct_1  c_disjunction_1_diajunct_1  -118
    ind_disjunction_1_disjunct_1  R38       1
    ind_disjunction_2_disjunct_1  OBJ       1186
    ind_disjunction_2_disjunct_1  c_disjunction_2_diajunct_1  -118
    ind_disjunction_2_disjunct_1  R41       1
    ind_disjunction_3_disjunct_1  OBJ       1186
    ind_disjunction_3_disjunct_1  c_disjunction_3_diajunct_1  -118
    ind_disjunction_3_disjunct_1  R44       1
    ind_disjunction_4_disjunct_1  OBJ       1186
    ind_disjunction_4_disjunct_1  c_disjunction_4_diajunct_1  -118
    ind_disjunction_4_disjunct_1  R47       1
    ind_disjunction_5_disjunct_1  OBJ       1186
    ind_disjunction_5_disjunct_1  c_disjunction_5_diajunct_1  -118
    ind_disjunction_5_disjunct_1  R50       1
    ind_disjunction_6_disjunct_1  OBJ       1186
    ind_disjunction_6_disjunct_1  c_disjunction_6_diajunct_1  -118
    ind_disjunction_6_disjunct_1  R53       1
    ind_disjunction_7_disjunct_1  OBJ       1186
    ind_disjunction_7_disjunct_1  c_disjunction_7_diajunct_1  -118
    ind_disjunction_7_disjunct_1  R56       1
    ind_disjunction_8_disjunct_1  OBJ       1186
    ind_disjunction_8_disjunct_1  c_disjunction_8_diajunct_1  -118
    ind_disjunction_8_disjunct_1  R59       1
    ind_disjunction_9_disjunct_1  OBJ       1186
    ind_disjunction_9_disjunct_1  c_disjunction_9_diajunct_1  -118
    ind_disjunction_9_disjunct_1  R62       1
    ind_disjunction_10_disjunct_1  OBJ       1186
    ind_disjunction_10_disjunct_1  c_disjunction_10_diajunct_1  -118
    ind_disjunction_10_disjunct_1  R65       1
    ind_disjunction_11_disjunct_1  OBJ       1186
    ind_disjunction_11_disjunct_1  c_disjunction_11_diajunct_1  -118
    ind_disjunction_11_disjunct_1  R68       1
    ind_disjunction_12_disjunct_1  OBJ       1186
    ind_disjunction_12_disjunct_1  c_disjunction_12_diajunct_1  -118
    ind_disjunction_12_disjunct_1  R71       1
    ind_disjunction_13_disjunct_1  OBJ       1186
    ind_disjunction_13_disjunct_1  c_disjunction_13_diajunct_1  -118
    ind_disjunction_13_disjunct_1  R74       1
    ind_disjunction_14_disjunct_1  OBJ       1186
    ind_disjunction_14_disjunct_1  c_disjunction_14_diajunct_1  -118
    ind_disjunction_14_disjunct_1  R77       1
    ind_disjunction_15_disjunct_1  OBJ       1186
    ind_disjunction_15_disjunct_1  c_disjunction_15_diajunct_1  -118
    ind_disjunction_15_disjunct_1  R80       1
    ind_disjunction_16_disjunct_1  OBJ       1186
    ind_disjunction_16_disjunct_1  c_disjunction_16_diajunct_1  -118
    ind_disjunction_16_disjunct_1  R83       1
    ind_disjunction_17_disjunct_1  OBJ       1186
    ind_disjunction_17_disjunct_1  c_disjunction_17_diajunct_1  -118
    ind_disjunction_17_disjunct_1  R86       1
    ind_disjunction_18_disjunct_1  OBJ       1186
    ind_disjunction_18_disjunct_1  c_disjunction_18_diajunct_1  -118
    ind_disjunction_18_disjunct_1  R89       1
    ind_disjunction_19_disjunct_1  OBJ       1186
    ind_disjunction_19_disjunct_1  c_disjunction_19_diajunct_1  -118
    ind_disjunction_19_disjunct_1  R92       1
    ind_disjunction_20_disjunct_1  OBJ       1186
    ind_disjunction_20_disjunct_1  c_disjunction_20_diajunct_1  -118
    ind_disjunction_20_disjunct_1  R95       1
    ind_disjunction_21_disjunct_1  OBJ       1186
    ind_disjunction_21_disjunct_1  c_disjunction_21_diajunct_1  -118
    ind_disjunction_21_disjunct_1  R98       1
    ind_disjunction_22_disjunct_1  OBJ       1186
    ind_disjunction_22_disjunct_1  c_disjunction_22_diajunct_1  -118
    ind_disjunction_22_disjunct_1  R101      1
    ind_disjunction_23_disjunct_1  OBJ       1186
    ind_disjunction_23_disjunct_1  c_disjunction_23_diajunct_1  -118
    ind_disjunction_23_disjunct_1  R104      1
    ind_disjunction_24_disjunct_1  OBJ       1186
    ind_disjunction_24_disjunct_1  c_disjunction_24_diajunct_1  -118
    ind_disjunction_24_disjunct_1  R107      1
    ind_disjunction_25_disjunct_1  OBJ       1186
    ind_disjunction_25_disjunct_1  c_disjunction_25_diajunct_1  -118
    ind_disjunction_25_disjunct_1  R110      1
    ind_disjunction_26_disjunct_1  OBJ       1186
    ind_disjunction_26_disjunct_1  c_disjunction_26_diajunct_1  -118
    ind_disjunction_26_disjunct_1  R113      1
    ind_disjunction_27_disjunct_1  OBJ       1186
    ind_disjunction_27_disjunct_1  c_disjunction_27_diajunct_1  -118
    ind_disjunction_27_disjunct_1  R116      1
    ind_disjunction_28_disjunct_1  OBJ       1186
    ind_disjunction_28_disjunct_1  c_disjunction_28_diajunct_1  -118
    ind_disjunction_28_disjunct_1  R119      1
    ind_disjunction_29_disjunct_1  OBJ       1186
    ind_disjunction_29_disjunct_1  c_disjunction_29_diajunct_1  -118
    ind_disjunction_29_disjunct_1  R122      1
    ind_disjunction_30_disjunct_1  OBJ       1186
    ind_disjunction_30_disjunct_1  c_disjunction_30_diajunct_1  -118
    ind_disjunction_30_disjunct_1  R125      1
    ind_disjunction_31_disjunct_1  OBJ       1186
    ind_disjunction_31_disjunct_1  c_disjunction_31_diajunct_1  -118
    ind_disjunction_31_disjunct_1  R128      1
    ind_disjunction_32_disjunct_1  OBJ       1186
    ind_disjunction_32_disjunct_1  c_disjunction_32_diajunct_1  -118
    ind_disjunction_32_disjunct_1  R131      1
    ind_disjunction_33_disjunct_1  OBJ       1186
    ind_disjunction_33_disjunct_1  c_disjunction_33_diajunct_1  -118
    ind_disjunction_33_disjunct_1  R134      1
    ind_disjunction_34_disjunct_1  OBJ       1186
    ind_disjunction_34_disjunct_1  c_disjunction_34_diajunct_1  -118
    ind_disjunction_34_disjunct_1  R137      1
    ind_disjunction_35_disjunct_1  OBJ       1186
    ind_disjunction_35_disjunct_1  c_disjunction_35_diajunct_1  -118
    ind_disjunction_35_disjunct_1  R140      1
    ind_disjunction_36_disjunct_1  OBJ       1186
    ind_disjunction_36_disjunct_1  c_disjunction_36_diajunct_1  -118
    ind_disjunction_36_disjunct_1  R143      1
    ind_disjunction_1_disjunct_2  c_disjunction_1_disjunct_2  3
    ind_disjunction_1_disjunct_2  R38       1
    ind_disjunction_2_disjunct_2  c_disjunction_2_disjunct_2  2
    ind_disjunction_2_disjunct_2  R41       1
    ind_disjunction_3_disjunct_2  c_disjunction_3_disjunct_2  2
    ind_disjunction_3_disjunct_2  R44       1
    ind_disjunction_4_disjunct_2  c_disjunction_4_disjunct_2  5
    ind_disjunction_4_disjunct_2  R47       1
    ind_disjunction_5_disjunct_2  c_disjunction_5_disjunct_2  1
    ind_disjunction_5_disjunct_2  R50       1
    ind_disjunction_6_disjunct_2  c_disjunction_6_disjunct_2  4
    ind_disjunction_6_disjunct_2  R53       1
    ind_disjunction_7_disjunct_2  c_disjunction_7_disjunct_2  3
    ind_disjunction_7_disjunct_2  R56       1
    ind_disjunction_8_disjunct_2  c_disjunction_8_disjunct_2  4
    ind_disjunction_8_disjunct_2  R59       1
    ind_disjunction_9_disjunct_2  c_disjunction_9_disjunct_2  5
    ind_disjunction_9_disjunct_2  R62       1
    ind_disjunction_10_disjunct_2  c_disjunction_10_disjunct_2  4
    ind_disjunction_10_disjunct_2  R65       1
    ind_disjunction_11_disjunct_2  c_disjunction_11_disjunct_2  3
    ind_disjunction_11_disjunct_2  R68       1
    ind_disjunction_12_disjunct_2  c_disjunction_12_disjunct_2  4
    ind_disjunction_12_disjunct_2  R71       1
    ind_disjunction_13_disjunct_2  c_disjunction_13_disjunct_2  5
    ind_disjunction_13_disjunct_2  R74       1
    ind_disjunction_14_disjunct_2  c_disjunction_14_disjunct_2  2
    ind_disjunction_14_disjunct_2  R77       1
    ind_disjunction_15_disjunct_2  c_disjunction_15_disjunct_2  1
    ind_disjunction_15_disjunct_2  R80       1
    ind_disjunction_16_disjunct_2  c_disjunction_16_disjunct_2  2
    ind_disjunction_16_disjunct_2  R83       1
    ind_disjunction_17_disjunct_2  c_disjunction_17_disjunct_2  1
    ind_disjunction_17_disjunct_2  R86       1
    ind_disjunction_18_disjunct_2  c_disjunction_18_disjunct_2  3
    ind_disjunction_18_disjunct_2  R89       1
    ind_disjunction_19_disjunct_2  c_disjunction_19_disjunct_2  4
    ind_disjunction_19_disjunct_2  R92       1
    ind_disjunction_20_disjunct_2  c_disjunction_20_disjunct_2  3
    ind_disjunction_20_disjunct_2  R95       1
    ind_disjunction_21_disjunct_2  c_disjunction_21_disjunct_2  4
    ind_disjunction_21_disjunct_2  R98       1
    ind_disjunction_22_disjunct_2  c_disjunction_22_disjunct_2  3
    ind_disjunction_22_disjunct_2  R101      1
    ind_disjunction_23_disjunct_2  c_disjunction_23_disjunct_2  3
    ind_disjunction_23_disjunct_2  R104      1
    ind_disjunction_24_disjunct_2  c_disjunction_24_disjunct_2  2
    ind_disjunction_24_disjunct_2  R107      1
    ind_disjunction_25_disjunct_2  c_disjunction_25_disjunct_2  2
    ind_disjunction_25_disjunct_2  R110      1
    ind_disjunction_26_disjunct_2  c_disjunction_26_disjunct_2  3
    ind_disjunction_26_disjunct_2  R113      1
    ind_disjunction_27_disjunct_2  c_disjunction_27_disjunct_2  2
    ind_disjunction_27_disjunct_2  R116      1
    ind_disjunction_28_disjunct_2  c_disjunction_28_disjunct_2  2
    ind_disjunction_28_disjunct_2  R119      1
    ind_disjunction_29_disjunct_2  c_disjunction_29_disjunct_2  4
    ind_disjunction_29_disjunct_2  R122      1
    ind_disjunction_30_disjunct_2  c_disjunction_30_disjunct_2  4
    ind_disjunction_30_disjunct_2  R125      1
    ind_disjunction_31_disjunct_2  c_disjunction_31_disjunct_2  3
    ind_disjunction_31_disjunct_2  R128      1
    ind_disjunction_32_disjunct_2  c_disjunction_32_disjunct_2  4
    ind_disjunction_32_disjunct_2  R131      1
    ind_disjunction_33_disjunct_2  c_disjunction_33_disjunct_2  3
    ind_disjunction_33_disjunct_2  R134      1
    ind_disjunction_34_disjunct_2  c_disjunction_34_disjunct_2  3
    ind_disjunction_34_disjunct_2  R137      1
    ind_disjunction_35_disjunct_2  c_disjunction_35_disjunct_2  2
    ind_disjunction_35_disjunct_2  R140      1
    ind_disjunction_36_disjunct_2  c_disjunction_36_disjunct_2  3
    ind_disjunction_36_disjunct_2  R143      1
    x[1,1]    demand_1  1
    x[1,1]    c_disjunction_1_diajunct_1  11
    x[1,1]    c_disjunction_1_disjunct_2  1
    x[22,1]   OBJ       12.2
    x[22,1]   demand_1  1
    x[22,1]   c_disjunction_22_diajunct_1  11
    x[22,1]   c_disjunction_22_disjunct_2  1
    x[20,1]   OBJ       28
    x[20,1]   demand_1  1
    x[20,1]   c_disjunction_20_diajunct_1  11
    x[20,1]   c_disjunction_20_disjunct_2  1
    x[2,2]    demand_2  1
    x[2,2]    c_disjunction_2_diajunct_1  27
    x[2,2]    c_disjunction_2_disjunct_2  1
    x[32,2]   OBJ       34.1
    x[32,2]   demand_2  1
    x[32,2]   c_disjunction_32_diajunct_1  27
    x[32,2]   c_disjunction_32_disjunct_2  1
    x[9,2]    OBJ       51.5
    x[9,2]    demand_2  1
    x[9,2]    c_disjunction_9_diajunct_1  27
    x[9,2]    c_disjunction_9_disjunct_2  1
    x[3,3]    demand_3  1
    x[3,3]    c_disjunction_3_diajunct_1  31
    x[3,3]    c_disjunction_3_disjunct_2  1
    x[14,3]   OBJ       31.9
    x[14,3]   demand_3  1
    x[14,3]   c_disjunction_14_diajunct_1  31
    x[14,3]   c_disjunction_14_disjunct_2  1
    x[4,3]    OBJ       34.1
    x[4,3]    demand_3  1
    x[4,3]    c_disjunction_4_diajunct_1  31
    x[4,3]    c_disjunction_4_disjunct_2  1
    x[4,4]    demand_4  1
    x[4,4]    c_disjunction_4_diajunct_1  17
    x[4,4]    c_disjunction_4_disjunct_2  1
    x[30,4]   OBJ       4
    x[30,4]   demand_4  1
    x[30,4]   c_disjunction_30_diajunct_1  17
    x[30,4]   c_disjunction_30_disjunct_2  1
    x[7,4]    OBJ       8.5
    x[7,4]    demand_4  1
    x[7,4]    c_disjunction_7_diajunct_1  17
    x[7,4]    c_disjunction_7_disjunct_2  1
    x[5,5]    demand_5  1
    x[5,5]    c_disjunction_5_diajunct_1  13
    x[5,5]    c_disjunction_5_disjunct_2  1
    x[2,5]    OBJ       28.9
    x[2,5]    demand_5  1
    x[2,5]    c_disjunction_2_diajunct_1  13
    x[2,5]    c_disjunction_2_disjunct_2  1
    x[13,5]   OBJ       29.3
    x[13,5]   demand_5  1
    x[13,5]   c_disjunction_13_diajunct_1  13
    x[13,5]   c_disjunction_13_disjunct_2  1
    x[6,6]    demand_6  1
    x[6,6]    c_disjunction_6_diajunct_1  5
    x[6,6]    c_disjunction_6_disjunct_2  1
    x[12,6]   OBJ       4.4
    x[12,6]   demand_6  1
    x[12,6]   c_disjunction_12_diajunct_1  5
    x[12,6]   c_disjunction_12_disjunct_2  1
    x[21,6]   OBJ       6.4
    x[21,6]   demand_6  1
    x[21,6]   c_disjunction_21_diajunct_1  5
    x[21,6]   c_disjunction_21_disjunct_2  1
    x[7,7]    demand_7  1
    x[7,7]    c_disjunction_7_diajunct_1  24
    x[7,7]    c_disjunction_7_disjunct_2  1
    x[4,7]    OBJ       12
    x[4,7]    demand_7  1
    x[4,7]    c_disjunction_4_diajunct_1  24
    x[4,7]    c_disjunction_4_disjunct_2  1
    x[30,7]   OBJ       17.4
    x[30,7]   demand_7  1
    x[30,7]   c_disjunction_30_diajunct_1  24
    x[30,7]   c_disjunction_30_disjunct_2  1
    x[8,8]    demand_8  1
    x[8,8]    c_disjunction_8_diajunct_1  35
    x[8,8]    c_disjunction_8_disjunct_2  1
    x[26,8]   OBJ       24.1
    x[26,8]   demand_8  1
    x[26,8]   c_disjunction_26_diajunct_1  35
    x[26,8]   c_disjunction_26_disjunct_2  1
    x[31,8]   OBJ       40.3
    x[31,8]   demand_8  1
    x[31,8]   c_disjunction_31_diajunct_1  35
    x[31,8]   c_disjunction_31_disjunct_2  1
    x[9,9]    demand_9  1
    x[9,9]    c_disjunction_9_diajunct_1  7
    x[9,9]    c_disjunction_9_disjunct_2  1
    x[29,9]   OBJ       3.1
    x[29,9]   demand_9  1
    x[29,9]   c_disjunction_29_diajunct_1  7
    x[29,9]   c_disjunction_29_disjunct_2  1
    x[32,9]   OBJ       4.7
    x[32,9]   demand_9  1
    x[32,9]   c_disjunction_32_diajunct_1  7
    x[32,9]   c_disjunction_32_disjunct_2  1
    x[10,10]  demand_10  1
    x[10,10]  c_disjunction_10_diajunct_1  24
    x[10,10]  c_disjunction_10_disjunct_2  1
    x[23,10]  OBJ       17.5
    x[23,10]  demand_10  1
    x[23,10]  c_disjunction_23_diajunct_1  24
    x[23,10]  c_disjunction_23_disjunct_2  1
    x[36,10]  OBJ       45.1
    x[36,10]  demand_10  1
    x[36,10]  c_disjunction_36_diajunct_1  24
    x[36,10]  c_disjunction_36_disjunct_2  1
    x[11,11]  demand_11  1
    x[11,11]  c_disjunction_11_diajunct_1  31
    x[11,11]  c_disjunction_11_disjunct_2  1
    x[25,11]  OBJ       30.7
    x[25,11]  demand_11  1
    x[25,11]  c_disjunction_25_diajunct_1  31
    x[25,11]  c_disjunction_25_disjunct_2  1
    x[18,11]  OBJ       40.4
    x[18,11]  demand_11  1
    x[18,11]  c_disjunction_18_diajunct_1  31
    x[18,11]  c_disjunction_18_disjunct_2  1
    x[12,12]  demand_12  1
    x[12,12]  c_disjunction_12_diajunct_1  23
    x[12,12]  c_disjunction_12_disjunct_2  1
    x[6,12]   OBJ       20.1
    x[6,12]   demand_12  1
    x[6,12]   c_disjunction_6_diajunct_1  23
    x[6,12]   c_disjunction_6_disjunct_2  1
    x[21,12]  OBJ       20.8
    x[21,12]  demand_12  1
    x[21,12]  c_disjunction_21_diajunct_1  23
    x[21,12]  c_disjunction_21_disjunct_2  1
    x[13,13]  demand_13  1
    x[13,13]  c_disjunction_13_diajunct_1  24
    x[13,13]  c_disjunction_13_disjunct_2  1
    x[19,13]  OBJ       17.7
    x[19,13]  demand_13  1
    x[19,13]  c_disjunction_19_diajunct_1  24
    x[19,13]  c_disjunction_19_disjunct_2  1
    x[35,13]  OBJ       19.6
    x[35,13]  demand_13  1
    x[35,13]  c_disjunction_35_diajunct_1  24
    x[35,13]  c_disjunction_35_disjunct_2  1
    x[14,14]  demand_14  1
    x[14,14]  c_disjunction_14_diajunct_1  32
    x[14,14]  c_disjunction_14_disjunct_2  1
    x[3,14]   OBJ       32.9
    x[3,14]   demand_14  1
    x[3,14]   c_disjunction_3_diajunct_1  32
    x[3,14]   c_disjunction_3_disjunct_2  1
    x[33,14]  OBJ       36.5
    x[33,14]  demand_14  1
    x[33,14]  c_disjunction_33_diajunct_1  32
    x[33,14]  c_disjunction_33_disjunct_2  1
    x[15,15]  demand_15  1
    x[15,15]  c_disjunction_15_diajunct_1  13
    x[15,15]  c_disjunction_15_disjunct_2  1
    x[6,15]   OBJ       19.5
    x[6,15]   demand_15  1
    x[6,15]   c_disjunction_6_diajunct_1  13
    x[6,15]   c_disjunction_6_disjunct_2  1
    x[34,15]  OBJ       20.1
    x[34,15]  demand_15  1
    x[34,15]  c_disjunction_34_diajunct_1  13
    x[34,15]  c_disjunction_34_disjunct_2  1
    x[16,16]  demand_16  1
    x[16,16]  c_disjunction_16_diajunct_1  19
    x[16,16]  c_disjunction_16_disjunct_2  1
    x[24,16]  OBJ       14.3
    x[24,16]  demand_16  1
    x[24,16]  c_disjunction_24_diajunct_1  19
    x[24,16]  c_disjunction_24_disjunct_2  1
    x[10,16]  OBJ       41.7
    x[10,16]  demand_16  1
    x[10,16]  c_disjunction_10_diajunct_1  19
    x[10,16]  c_disjunction_10_disjunct_2  1
    x[17,17]  demand_17  1
    x[17,17]  c_disjunction_17_diajunct_1  21
    x[17,17]  c_disjunction_17_disjunct_2  1
    x[30,17]  OBJ       32.8
    x[30,17]  demand_17  1
    x[30,17]  c_disjunction_30_diajunct_1  21
    x[30,17]  c_disjunction_30_disjunct_2  1
    x[4,17]   OBJ       35.2
    x[4,17]   demand_17  1
    x[4,17]   c_disjunction_4_diajunct_1  21
    x[4,17]   c_disjunction_4_disjunct_2  1
    x[18,18]  demand_18  1
    x[18,18]  c_disjunction_18_diajunct_1  20
    x[18,18]  c_disjunction_18_disjunct_2  1
    x[33,18]  OBJ       18.3
    x[33,18]  demand_18  1
    x[33,18]  c_disjunction_33_diajunct_1  20
    x[33,18]  c_disjunction_33_disjunct_2  1
    x[11,18]  OBJ       26.1
    x[11,18]  demand_18  1
    x[11,18]  c_disjunction_11_diajunct_1  20
    x[11,18]  c_disjunction_11_disjunct_2  1
    x[19,19]  demand_19  1
    x[19,19]  c_disjunction_19_diajunct_1  13
    x[19,19]  c_disjunction_19_disjunct_2  1
    x[27,19]  OBJ       7.7
    x[27,19]  demand_19  1
    x[27,19]  c_disjunction_27_diajunct_1  13
    x[27,19]  c_disjunction_27_disjunct_2  1
    x[13,19]  OBJ       9.6
    x[13,19]  demand_19  1
    x[13,19]  c_disjunction_13_diajunct_1  13
    x[13,19]  c_disjunction_13_disjunct_2  1
    x[20,20]  demand_20  1
    x[20,20]  c_disjunction_20_diajunct_1  27
    x[20,20]  c_disjunction_20_disjunct_2  1
    x[22,20]  OBJ       41.1
    x[22,20]  demand_20  1
    x[22,20]  c_disjunction_22_diajunct_1  27
    x[22,20]  c_disjunction_22_disjunct_2  1
    x[1,20]   OBJ       68.7
    x[1,20]   demand_20  1
    x[1,20]   c_disjunction_1_diajunct_1  27
    x[1,20]   c_disjunction_1_disjunct_2  1
    x[21,21]  demand_21  1
    x[21,21]  c_disjunction_21_diajunct_1  22
    x[21,21]  c_disjunction_21_disjunct_2  1
    x[12,21]  OBJ       19.9
    x[12,21]  demand_21  1
    x[12,21]  c_disjunction_12_diajunct_1  22
    x[12,21]  c_disjunction_12_disjunct_2  1
    x[6,21]   OBJ       28.1
    x[6,21]   demand_21  1
    x[6,21]   c_disjunction_6_diajunct_1  22
    x[6,21]   c_disjunction_6_disjunct_2  1
    x[22,22]  demand_22  1
    x[22,22]  c_disjunction_22_diajunct_1  16
    x[22,22]  c_disjunction_22_disjunct_2  1
    x[1,22]   OBJ       17.8
    x[1,22]   demand_22  1
    x[1,22]   c_disjunction_1_diajunct_1  16
    x[1,22]   c_disjunction_1_disjunct_2  1
    x[20,22]  OBJ       24.4
    x[20,22]  demand_22  1
    x[20,22]  c_disjunction_20_diajunct_1  16
    x[20,22]  c_disjunction_20_disjunct_2  1
    x[23,23]  demand_23  1
    x[23,23]  c_disjunction_23_diajunct_1  23
    x[23,23]  c_disjunction_23_disjunct_2  1
    x[10,23]  OBJ       16.8
    x[10,23]  demand_23  1
    x[10,23]  c_disjunction_10_diajunct_1  23
    x[10,23]  c_disjunction_10_disjunct_2  1
    x[36,23]  OBJ       26.5
    x[36,23]  demand_23  1
    x[36,23]  c_disjunction_36_diajunct_1  23
    x[36,23]  c_disjunction_36_disjunct_2  1
    x[24,24]  demand_24  1
    x[24,24]  c_disjunction_24_diajunct_1  8
    x[24,24]  c_disjunction_24_disjunct_2  1
    x[16,24]  OBJ       6
    x[16,24]  demand_24  1
    x[16,24]  c_disjunction_16_diajunct_1  8
    x[16,24]  c_disjunction_16_disjunct_2  1
    x[21,24]  OBJ       15.4
    x[21,24]  demand_24  1
    x[21,24]  c_disjunction_21_diajunct_1  8
    x[21,24]  c_disjunction_21_disjunct_2  1
    x[25,25]  demand_25  1
    x[25,25]  c_disjunction_25_diajunct_1  31
    x[25,25]  c_disjunction_25_disjunct_2  1
    x[11,25]  OBJ       30.7
    x[11,25]  demand_25  1
    x[11,25]  c_disjunction_11_diajunct_1  31
    x[11,25]  c_disjunction_11_disjunct_2  1
    x[9,25]   OBJ       36.1
    x[9,25]   demand_25  1
    x[9,25]   c_disjunction_9_diajunct_1  31
    x[9,25]   c_disjunction_9_disjunct_2  1
    x[26,26]  demand_26  1
    x[26,26]  c_disjunction_26_diajunct_1  8
    x[26,26]  c_disjunction_26_disjunct_2  1
    x[8,26]   OBJ       5.5
    x[8,26]   demand_26  1
    x[8,26]   c_disjunction_8_diajunct_1  8
    x[8,26]   c_disjunction_8_disjunct_2  1
    x[28,26]  OBJ       10.2
    x[28,26]  demand_26  1
    x[28,26]  c_disjunction_28_diajunct_1  8
    x[28,26]  c_disjunction_28_disjunct_2  1
    x[27,27]  demand_27  1
    x[27,27]  c_disjunction_27_diajunct_1  26
    x[27,27]  c_disjunction_27_disjunct_2  1
    x[19,27]  OBJ       15.3
    x[19,27]  demand_27  1
    x[19,27]  c_disjunction_19_diajunct_1  26
    x[19,27]  c_disjunction_19_disjunct_2  1
    x[13,27]  OBJ       26.3
    x[13,27]  demand_27  1
    x[13,27]  c_disjunction_13_diajunct_1  26
    x[13,27]  c_disjunction_13_disjunct_2  1
    x[28,28]  demand_28  1
    x[28,28]  c_disjunction_28_diajunct_1  5
    x[28,28]  c_disjunction_28_disjunct_2  1
    x[26,28]  OBJ       6.4
    x[26,28]  demand_28  1
    x[26,28]  c_disjunction_26_diajunct_1  5
    x[26,28]  c_disjunction_26_disjunct_2  1
    x[8,28]   OBJ       9.6
    x[8,28]   demand_28  1
    x[8,28]   c_disjunction_8_diajunct_1  5
    x[8,28]   c_disjunction_8_disjunct_2  1
    x[29,29]  demand_29  1
    x[29,29]  c_disjunction_29_diajunct_1  32
    x[29,29]  c_disjunction_29_disjunct_2  1
    x[9,29]   OBJ       14.3
    x[9,29]   demand_29  1
    x[9,29]   c_disjunction_9_diajunct_1  32
    x[9,29]   c_disjunction_9_disjunct_2  1
    x[32,29]  OBJ       30.8
    x[32,29]  demand_29  1
    x[32,29]  c_disjunction_32_diajunct_1  32
    x[32,29]  c_disjunction_32_disjunct_2  1
    x[30,30]  demand_30  1
    x[30,30]  c_disjunction_30_diajunct_1  7
    x[30,30]  c_disjunction_30_disjunct_2  1
    x[4,30]   OBJ       1.6
    x[4,30]   demand_30  1
    x[4,30]   c_disjunction_4_diajunct_1  7
    x[4,30]   c_disjunction_4_disjunct_2  1
    x[7,30]   OBJ       5.1
    x[7,30]   demand_30  1
    x[7,30]   c_disjunction_7_diajunct_1  7
    x[7,30]   c_disjunction_7_disjunct_2  1
    x[31,31]  demand_31  1
    x[31,31]  c_disjunction_31_diajunct_1  19
    x[31,31]  c_disjunction_31_disjunct_2  1
    x[34,31]  OBJ       21.7
    x[34,31]  demand_31  1
    x[34,31]  c_disjunction_34_diajunct_1  19
    x[34,31]  c_disjunction_34_disjunct_2  1
    x[8,31]   OBJ       21.9
    x[8,31]   demand_31  1
    x[8,31]   c_disjunction_8_diajunct_1  19
    x[8,31]   c_disjunction_8_disjunct_2  1
    x[32,32]  demand_32  1
    x[32,32]  c_disjunction_32_diajunct_1  15
    x[32,32]  c_disjunction_32_disjunct_2  1
    x[9,32]   OBJ       10.2
    x[9,32]   demand_32  1
    x[9,32]   c_disjunction_9_diajunct_1  15
    x[9,32]   c_disjunction_9_disjunct_2  1
    x[29,32]  OBJ       14.4
    x[29,32]  demand_32  1
    x[29,32]  c_disjunction_29_diajunct_1  15
    x[29,32]  c_disjunction_29_disjunct_2  1
    x[33,33]  demand_33  1
    x[33,33]  c_disjunction_33_diajunct_1  27
    x[33,33]  c_disjunction_33_disjunct_2  1
    x[18,33]  OBJ       24.7
    x[18,33]  demand_33  1
    x[18,33]  c_disjunction_18_diajunct_1  27
    x[18,33]  c_disjunction_18_disjunct_2  1
    x[29,33]  OBJ       26.4
    x[29,33]  demand_33  1
    x[29,33]  c_disjunction_29_diajunct_1  27
    x[29,33]  c_disjunction_29_disjunct_2  1
    x[34,34]  demand_34  1
    x[34,34]  c_disjunction_34_diajunct_1  21
    x[34,34]  c_disjunction_34_disjunct_2  1
    x[31,34]  OBJ       24
    x[31,34]  demand_34  1
    x[31,34]  c_disjunction_31_diajunct_1  21
    x[31,34]  c_disjunction_31_disjunct_2  1
    x[12,34]  OBJ       31.7
    x[12,34]  demand_34  1
    x[12,34]  c_disjunction_12_diajunct_1  21
    x[12,34]  c_disjunction_12_disjunct_2  1
    x[35,35]  demand_35  1
    x[35,35]  c_disjunction_35_diajunct_1  28
    x[35,35]  c_disjunction_35_disjunct_2  1
    x[13,35]  OBJ       22.9
    x[13,35]  demand_35  1
    x[13,35]  c_disjunction_13_diajunct_1  28
    x[13,35]  c_disjunction_13_disjunct_2  1
    x[19,35]  OBJ       29.7
    x[19,35]  demand_35  1
    x[19,35]  c_disjunction_19_diajunct_1  28
    x[19,35]  c_disjunction_19_disjunct_2  1
    x[36,36]  demand_36  1
    x[36,36]  c_disjunction_36_diajunct_1  6
    x[36,36]  c_disjunction_36_disjunct_2  1
    x[23,36]  OBJ       6.9
    x[23,36]  demand_36  1
    x[23,36]  c_disjunction_23_diajunct_1  6
    x[23,36]  c_disjunction_23_disjunct_2  1
    x[10,36]  OBJ       11.3
    x[10,36]  demand_36  1
    x[10,36]  c_disjunction_10_diajunct_1  6
    x[10,36]  c_disjunction_10_disjunct_2  1
    MARKER    'MARKER'                 'INTEND'
RHS
    RHS1      demand_1  1
    RHS1      demand_2  1
    RHS1      demand_3  1
    RHS1      demand_4  1
    RHS1      demand_5  1
    RHS1      demand_6  1
    RHS1      demand_7  1
    RHS1      demand_8  1
    RHS1      demand_9  1
    RHS1      demand_10  1
    RHS1      demand_11  1
    RHS1      demand_12  1
    RHS1      demand_13  1
    RHS1      demand_14  1
    RHS1      demand_15  1
    RHS1      demand_16  1
    RHS1      demand_17  1
    RHS1      demand_18  1
    RHS1      demand_19  1
    RHS1      demand_20  1
    RHS1      demand_21  1
    RHS1      demand_22  1
    RHS1      demand_23  1
    RHS1      demand_24  1
    RHS1      demand_25  1
    RHS1      demand_26  1
    RHS1      demand_27  1
    RHS1      demand_28  1
    RHS1      demand_29  1
    RHS1      demand_30  1
    RHS1      demand_31  1
    RHS1      demand_32  1
    RHS1      demand_33  1
    RHS1      demand_34  1
    RHS1      demand_35  1
    RHS1      demand_36  1
    RHS1      c_disjunction_1_disjunct_2  3
    RHS1      R38       1
    RHS1      c_disjunction_2_disjunct_2  2
    RHS1      R41       1
    RHS1      c_disjunction_3_disjunct_2  2
    RHS1      R44       1
    RHS1      c_disjunction_4_disjunct_2  5
    RHS1      R47       1
    RHS1      c_disjunction_5_disjunct_2  1
    RHS1      R50       1
    RHS1      c_disjunction_6_disjunct_2  4
    RHS1      R53       1
    RHS1      c_disjunction_7_disjunct_2  3
    RHS1      R56       1
    RHS1      c_disjunction_8_disjunct_2  4
    RHS1      R59       1
    RHS1      c_disjunction_9_disjunct_2  5
    RHS1      R62       1
    RHS1      c_disjunction_10_disjunct_2  4
    RHS1      R65       1
    RHS1      c_disjunction_11_disjunct_2  3
    RHS1      R68       1
    RHS1      c_disjunction_12_disjunct_2  4
    RHS1      R71       1
    RHS1      c_disjunction_13_disjunct_2  5
    RHS1      R74       1
    RHS1      c_disjunction_14_disjunct_2  2
    RHS1      R77       1
    RHS1      c_disjunction_15_disjunct_2  1
    RHS1      R80       1
    RHS1      c_disjunction_16_disjunct_2  2
    RHS1      R83       1
    RHS1      c_disjunction_17_disjunct_2  1
    RHS1      R86       1
    RHS1      c_disjunction_18_disjunct_2  3
    RHS1      R89       1
    RHS1      c_disjunction_19_disjunct_2  4
    RHS1      R92       1
    RHS1      c_disjunction_20_disjunct_2  3
    RHS1      R95       1
    RHS1      c_disjunction_21_disjunct_2  4
    RHS1      R98       1
    RHS1      c_disjunction_22_disjunct_2  3
    RHS1      R101      1
    RHS1      c_disjunction_23_disjunct_2  3
    RHS1      R104      1
    RHS1      c_disjunction_24_disjunct_2  2
    RHS1      R107      1
    RHS1      c_disjunction_25_disjunct_2  2
    RHS1      R110      1
    RHS1      c_disjunction_26_disjunct_2  3
    RHS1      R113      1
    RHS1      c_disjunction_27_disjunct_2  2
    RHS1      R116      1
    RHS1      c_disjunction_28_disjunct_2  2
    RHS1      R119      1
    RHS1      c_disjunction_29_disjunct_2  4
    RHS1      R122      1
    RHS1      c_disjunction_30_disjunct_2  4
    RHS1      R125      1
    RHS1      c_disjunction_31_disjunct_2  3
    RHS1      R128      1
    RHS1      c_disjunction_32_disjunct_2  4
    RHS1      R131      1
    RHS1      c_disjunction_33_disjunct_2  3
    RHS1      R134      1
    RHS1      c_disjunction_34_disjunct_2  3
    RHS1      R137      1
    RHS1      c_disjunction_35_disjunct_2  2
    RHS1      R140      1
    RHS1      c_disjunction_36_disjunct_2  3
    RHS1      R143      1
BOUNDS
 BV BND1      ind_disjunction_1_disjunct_1
 BV BND1      ind_disjunction_2_disjunct_1
 BV BND1      ind_disjunction_3_disjunct_1
 BV BND1      ind_disjunction_4_disjunct_1
 BV BND1      ind_disjunction_5_disjunct_1
 BV BND1      ind_disjunction_6_disjunct_1
 BV BND1      ind_disjunction_7_disjunct_1
 BV BND1      ind_disjunction_8_disjunct_1
 BV BND1      ind_disjunction_9_disjunct_1
 BV BND1      ind_disjunction_10_disjunct_1
 BV BND1      ind_disjunction_11_disjunct_1
 BV BND1      ind_disjunction_12_disjunct_1
 BV BND1      ind_disjunction_13_disjunct_1
 BV BND1      ind_disjunction_14_disjunct_1
 BV BND1      ind_disjunction_15_disjunct_1
 BV BND1      ind_disjunction_16_disjunct_1
 BV BND1      ind_disjunction_17_disjunct_1
 BV BND1      ind_disjunction_18_disjunct_1
 BV BND1      ind_disjunction_19_disjunct_1
 BV BND1      ind_disjunction_20_disjunct_1
 BV BND1      ind_disjunction_21_disjunct_1
 BV BND1      ind_disjunction_22_disjunct_1
 BV BND1      ind_disjunction_23_disjunct_1
 BV BND1      ind_disjunction_24_disjunct_1
 BV BND1      ind_disjunction_25_disjunct_1
 BV BND1      ind_disjunction_26_disjunct_1
 BV BND1      ind_disjunction_27_disjunct_1
 BV BND1      ind_disjunction_28_disjunct_1
 BV BND1      ind_disjunction_29_disjunct_1
 BV BND1      ind_disjunction_30_disjunct_1
 BV BND1      ind_disjunction_31_disjunct_1
 BV BND1      ind_disjunction_32_disjunct_1
 BV BND1      ind_disjunction_33_disjunct_1
 BV BND1      ind_disjunction_34_disjunct_1
 BV BND1      ind_disjunction_35_disjunct_1
 BV BND1      ind_disjunction_36_disjunct_1
 BV BND1      ind_disjunction_1_disjunct_2
 BV BND1      ind_disjunction_2_disjunct_2
 BV BND1      ind_disjunction_3_disjunct_2
 BV BND1      ind_disjunction_4_disjunct_2
 BV BND1      ind_disjunction_5_disjunct_2
 BV BND1      ind_disjunction_6_disjunct_2
 BV BND1      ind_disjunction_7_disjunct_2
 BV BND1      ind_disjunction_8_disjunct_2
 BV BND1      ind_disjunction_9_disjunct_2
 BV BND1      ind_disjunction_10_disjunct_2
 BV BND1      ind_disjunction_11_disjunct_2
 BV BND1      ind_disjunction_12_disjunct_2
 BV BND1      ind_disjunction_13_disjunct_2
 BV BND1      ind_disjunction_14_disjunct_2
 BV BND1      ind_disjunction_15_disjunct_2
 BV BND1      ind_disjunction_16_disjunct_2
 BV BND1      ind_disjunction_17_disjunct_2
 BV BND1      ind_disjunction_18_disjunct_2
 BV BND1      ind_disjunction_19_disjunct_2
 BV BND1      ind_disjunction_20_disjunct_2
 BV BND1      ind_disjunction_21_disjunct_2
 BV BND1      ind_disjunction_22_disjunct_2
 BV BND1      ind_disjunction_23_disjunct_2
 BV BND1      ind_disjunction_24_disjunct_2
 BV BND1      ind_disjunction_25_disjunct_2
 BV BND1      ind_disjunction_26_disjunct_2
 BV BND1      ind_disjunction_27_disjunct_2
 BV BND1      ind_disjunction_28_disjunct_2
 BV BND1      ind_disjunction_29_disjunct_2
 BV BND1      ind_disjunction_30_disjunct_2
 BV BND1      ind_disjunction_31_disjunct_2
 BV BND1      ind_disjunction_32_disjunct_2
 BV BND1      ind_disjunction_33_disjunct_2
 BV BND1      ind_disjunction_34_disjunct_2
 BV BND1      ind_disjunction_35_disjunct_2
 BV BND1      ind_disjunction_36_disjunct_2
 BV BND1      x[1,1]  
 BV BND1      x[22,1] 
 BV BND1      x[20,1] 
 BV BND1      x[2,2]  
 BV BND1      x[32,2] 
 BV BND1      x[9,2]  
 BV BND1      x[3,3]  
 BV BND1      x[14,3] 
 BV BND1      x[4,3]  
 BV BND1      x[4,4]  
 BV BND1      x[30,4] 
 BV BND1      x[7,4]  
 BV BND1      x[5,5]  
 BV BND1      x[2,5]  
 BV BND1      x[13,5] 
 BV BND1      x[6,6]  
 BV BND1      x[12,6] 
 BV BND1      x[21,6] 
 BV BND1      x[7,7]  
 BV BND1      x[4,7]  
 BV BND1      x[30,7] 
 BV BND1      x[8,8]  
 BV BND1      x[26,8] 
 BV BND1      x[31,8] 
 BV BND1      x[9,9]  
 BV BND1      x[29,9] 
 BV BND1      x[32,9] 
 BV BND1      x[10,10]
 BV BND1      x[23,10]
 BV BND1      x[36,10]
 BV BND1      x[11,11]
 BV BND1      x[25,11]
 BV BND1      x[18,11]
 BV BND1      x[12,12]
 BV BND1      x[6,12] 
 BV BND1      x[21,12]
 BV BND1      x[13,13]
 BV BND1      x[19,13]
 BV BND1      x[35,13]
 BV BND1      x[14,14]
 BV BND1      x[3,14] 
 BV BND1      x[33,14]
 BV BND1      x[15,15]
 BV BND1      x[6,15] 
 BV BND1      x[34,15]
 BV BND1      x[16,16]
 BV BND1      x[24,16]
 BV BND1      x[10,16]
 BV BND1      x[17,17]
 BV BND1      x[30,17]
 BV BND1      x[4,17] 
 BV BND1      x[18,18]
 BV BND1      x[33,18]
 BV BND1      x[11,18]
 BV BND1      x[19,19]
 BV BND1      x[27,19]
 BV BND1      x[13,19]
 BV BND1      x[20,20]
 BV BND1      x[22,20]
 BV BND1      x[1,20] 
 BV BND1      x[21,21]
 BV BND1      x[12,21]
 BV BND1      x[6,21] 
 BV BND1      x[22,22]
 BV BND1      x[1,22] 
 BV BND1      x[20,22]
 BV BND1      x[23,23]
 BV BND1      x[10,23]
 BV BND1      x[36,23]
 BV BND1      x[24,24]
 BV BND1      x[16,24]
 BV BND1      x[21,24]
 BV BND1      x[25,25]
 BV BND1      x[11,25]
 BV BND1      x[9,25] 
 BV BND1      x[26,26]
 BV BND1      x[8,26] 
 BV BND1      x[28,26]
 BV BND1      x[27,27]
 BV BND1      x[19,27]
 BV BND1      x[13,27]
 BV BND1      x[28,28]
 BV BND1      x[26,28]
 BV BND1      x[8,28] 
 BV BND1      x[29,29]
 BV BND1      x[9,29] 
 BV BND1      x[32,29]
 BV BND1      x[30,30]
 BV BND1      x[4,30] 
 BV BND1      x[7,30] 
 BV BND1      x[31,31]
 BV BND1      x[34,31]
 BV BND1      x[8,31] 
 BV BND1      x[32,32]
 BV BND1      x[9,32] 
 BV BND1      x[29,32]
 BV BND1      x[33,33]
 BV BND1      x[18,33]
 BV BND1      x[29,33]
 BV BND1      x[34,34]
 BV BND1      x[31,34]
 BV BND1      x[12,34]
 BV BND1      x[35,35]
 BV BND1      x[13,35]
 BV BND1      x[19,35]
 BV BND1      x[36,36]
 BV BND1      x[23,36]
 BV BND1      x[10,36]
ENDATA
